c "24538.clq"
p edge 197 2896
e 1 17
e 1 18
e 1 19
e 1 20
e 1 21
e 1 22
e 1 25
e 1 26
e 1 30
e 1 31
e 1 33
e 1 57
e 1 65
e 1 67
e 1 70
e 1 77
e 1 82
e 1 85
e 1 87
e 1 90
e 1 104
e 1 111
e 1 112
e 1 118
e 1 124
e 1 130
e 1 135
e 1 145
e 1 146
e 1 148
e 1 163
e 1 184
e 1 188
e 2 17
e 2 18
e 2 19
e 2 21
e 2 23
e 2 25
e 2 26
e 2 28
e 2 29
e 2 32
e 2 33
e 2 34
e 2 36
e 2 39
e 2 42
e 2 47
e 2 48
e 2 49
e 2 50
e 2 54
e 2 55
e 2 59
e 2 64
e 2 73
e 2 77
e 2 79
e 2 81
e 2 95
e 2 98
e 2 105
e 2 106
e 2 108
e 2 111
e 2 115
e 2 117
e 2 119
e 2 120
e 2 129
e 2 133
e 2 165
e 2 175
e 2 177
e 2 182
e 2 188
e 3 17
e 3 18
e 3 19
e 3 20
e 3 21
e 3 22
e 3 23
e 3 25
e 3 27
e 3 29
e 3 30
e 3 32
e 3 33
e 3 35
e 3 37
e 3 39
e 3 40
e 3 44
e 3 45
e 3 51
e 3 57
e 3 68
e 3 79
e 3 83
e 3 86
e 3 89
e 3 98
e 3 102
e 3 103
e 3 105
e 3 111
e 3 132
e 3 140
e 3 164
e 3 193
e 4 17
e 4 18
e 4 19
e 4 20
e 4 21
e 4 23
e 4 24
e 4 26
e 4 27
e 4 28
e 4 30
e 4 32
e 4 34
e 4 35
e 4 40
e 4 43
e 4 48
e 4 50
e 4 56
e 4 57
e 4 60
e 4 62
e 4 68
e 4 72
e 4 78
e 4 84
e 4 88
e 4 92
e 4 97
e 4 101
e 4 103
e 4 106
e 4 108
e 4 109
e 4 127
e 4 134
e 4 143
e 4 145
e 4 161
e 4 162
e 4 171
e 4 175
e 4 177
e 4 188
e 4 191
e 5 17
e 5 18
e 5 19
e 5 20
e 5 22
e 5 23
e 5 24
e 5 26
e 5 27
e 5 28
e 5 29
e 5 30
e 5 31
e 5 34
e 5 39
e 5 42
e 5 49
e 5 52
e 5 54
e 5 56
e 5 58
e 5 61
e 5 68
e 5 75
e 5 82
e 5 88
e 5 89
e 5 93
e 5 94
e 5 105
e 5 107
e 5 108
e 5 113
e 5 115
e 5 129
e 5 134
e 5 141
e 5 142
e 5 145
e 5 153
e 5 156
e 5 161
e 5 163
e 5 174
e 5 176
e 5 184
e 5 186
e 6 17
e 6 18
e 6 19
e 6 20
e 6 21
e 6 22
e 6 25
e 6 26
e 6 27
e 6 29
e 6 31
e 6 34
e 6 39
e 6 45
e 6 55
e 6 60
e 6 64
e 6 70
e 6 71
e 6 72
e 6 73
e 6 81
e 6 88
e 6 91
e 6 100
e 6 109
e 6 121
e 6 126
e 6 140
e 6 142
e 6 158
e 6 166
e 6 184
e 6 185
e 6 197
e 7 17
e 7 18
e 7 19
e 7 20
e 7 21
e 7 22
e 7 23
e 7 24
e 7 26
e 7 27
e 7 29
e 7 32
e 7 35
e 7 36
e 7 38
e 7 41
e 7 43
e 7 44
e 7 45
e 7 47
e 7 48
e 7 51
e 7 53
e 7 55
e 7 62
e 7 63
e 7 65
e 7 67
e 7 71
e 7 77
e 7 78
e 7 80
e 7 84
e 7 85
e 7 94
e 7 101
e 7 107
e 7 109
e 7 110
e 7 112
e 7 113
e 7 116
e 7 117
e 7 122
e 7 123
e 7 128
e 7 140
e 7 141
e 7 149
e 7 151
e 7 153
e 7 155
e 7 164
e 7 167
e 7 170
e 7 178
e 7 181
e 7 183
e 7 189
e 7 192
e 8 17
e 8 18
e 8 19
e 8 24
e 8 25
e 8 28
e 8 32
e 8 33
e 8 41
e 8 42
e 8 43
e 8 44
e 8 54
e 8 86
e 8 102
e 8 104
e 8 111
e 8 136
e 8 139
e 8 140
e 8 143
e 8 180
e 8 190
e 8 193
e 9 17
e 9 18
e 9 19
e 9 20
e 9 21
e 9 22
e 9 23
e 9 24
e 9 28
e 9 37
e 9 38
e 9 40
e 9 41
e 9 43
e 9 47
e 9 52
e 9 53
e 9 61
e 9 62
e 9 63
e 9 65
e 9 66
e 9 69
e 9 72
e 9 76
e 9 80
e 9 83
e 9 92
e 9 100
e 9 113
e 9 131
e 9 156
e 9 162
e 9 184
e 9 185
e 10 17
e 10 18
e 10 19
e 10 20
e 10 22
e 10 23
e 10 28
e 10 41
e 10 43
e 10 44
e 10 46
e 10 50
e 10 59
e 10 60
e 10 68
e 10 78
e 10 80
e 10 93
e 10 114
e 10 123
e 10 127
e 10 129
e 10 146
e 10 157
e 10 169
e 10 170
e 10 172
e 10 177
e 10 196
e 11 17
e 11 18
e 11 19
e 11 21
e 11 22
e 11 24
e 11 26
e 11 28
e 11 29
e 11 31
e 11 34
e 11 35
e 11 36
e 11 37
e 11 38
e 11 60
e 11 63
e 11 74
e 11 75
e 11 78
e 11 84
e 11 89
e 11 111
e 11 118
e 11 122
e 11 129
e 11 140
e 11 147
e 11 171
e 11 179
e 12 17
e 12 18
e 12 19
e 12 20
e 12 21
e 12 22
e 12 24
e 12 26
e 12 33
e 12 35
e 12 37
e 12 40
e 12 42
e 12 47
e 12 50
e 12 65
e 12 84
e 12 86
e 12 88
e 12 90
e 12 91
e 12 107
e 12 121
e 12 123
e 12 135
e 12 139
e 12 142
e 12 143
e 12 151
e 12 161
e 12 170
e 12 178
e 13 17
e 13 18
e 13 19
e 13 20
e 13 21
e 13 23
e 13 24
e 13 25
e 13 28
e 13 31
e 13 32
e 13 33
e 13 35
e 13 36
e 13 37
e 13 45
e 13 50
e 13 51
e 13 55
e 13 57
e 13 58
e 13 70
e 13 89
e 13 98
e 13 99
e 13 112
e 13 116
e 13 120
e 13 135
e 13 150
e 13 161
e 13 162
e 13 188
e 14 17
e 14 18
e 14 20
e 14 21
e 14 22
e 14 23
e 14 24
e 14 25
e 14 26
e 14 29
e 14 30
e 14 31
e 14 34
e 14 36
e 14 37
e 14 41
e 14 45
e 14 58
e 14 67
e 14 74
e 14 88
e 14 96
e 14 111
e 14 123
e 14 136
e 14 152
e 14 166
e 14 176
e 14 178
e 14 183
e 14 188
e 14 197
e 15 17
e 15 20
e 15 23
e 15 26
e 15 27
e 15 35
e 15 42
e 15 54
e 15 63
e 15 105
e 15 110
e 15 130
e 15 141
e 15 181
e 16 17
e 16 18
e 16 19
e 16 20
e 16 21
e 16 22
e 16 24
e 16 25
e 16 27
e 16 30
e 16 36
e 16 37
e 16 39
e 16 42
e 16 44
e 16 48
e 16 53
e 16 62
e 16 70
e 16 72
e 16 79
e 16 96
e 16 109
e 16 116
e 16 117
e 16 119
e 16 127
e 16 137
e 16 147
e 16 167
e 16 176
e 16 194
e 17 18
e 17 19
e 17 20
e 17 21
e 17 22
e 17 23
e 17 24
e 17 25
e 17 26
e 17 28
e 17 29
e 17 30
e 17 32
e 17 33
e 17 34
e 17 36
e 17 37
e 17 38
e 17 39
e 17 40
e 17 41
e 17 43
e 17 44
e 17 45
e 17 46
e 17 49
e 17 51
e 17 52
e 17 55
e 17 56
e 17 57
e 17 58
e 17 59
e 17 60
e 17 62
e 17 63
e 17 65
e 17 83
e 17 84
e 17 86
e 17 88
e 17 90
e 17 91
e 17 92
e 17 94
e 17 96
e 17 99
e 17 107
e 17 108
e 17 109
e 17 113
e 17 116
e 17 120
e 17 126
e 17 131
e 17 132
e 17 138
e 17 139
e 17 143
e 17 146
e 17 153
e 17 157
e 17 160
e 17 164
e 17 165
e 17 167
e 17 171
e 17 174
e 17 177
e 17 179
e 17 184
e 17 191
e 17 195
e 18 19
e 18 20
e 18 21
e 18 22
e 18 23
e 18 24
e 18 25
e 18 26
e 18 27
e 18 28
e 18 30
e 18 31
e 18 32
e 18 33
e 18 34
e 18 36
e 18 38
e 18 39
e 18 43
e 18 46
e 18 47
e 18 48
e 18 49
e 18 54
e 18 61
e 18 64
e 18 71
e 18 72
e 18 76
e 18 78
e 18 85
e 18 88
e 18 100
e 18 106
e 18 107
e 18 108
e 18 111
e 18 112
e 18 115
e 18 116
e 18 128
e 18 130
e 18 132
e 18 137
e 18 142
e 18 143
e 18 147
e 18 149
e 18 153
e 18 168
e 18 170
e 18 171
e 18 173
e 18 183
e 18 185
e 18 192
e 19 20
e 19 21
e 19 22
e 19 23
e 19 24
e 19 25
e 19 27
e 19 30
e 19 31
e 19 33
e 19 34
e 19 36
e 19 39
e 19 41
e 19 43
e 19 50
e 19 51
e 19 52
e 19 55
e 19 56
e 19 58
e 19 62
e 19 65
e 19 66
e 19 71
e 19 72
e 19 73
e 19 79
e 19 83
e 19 87
e 19 88
e 19 94
e 19 99
e 19 100
e 19 104
e 19 105
e 19 110
e 19 111
e 19 117
e 19 118
e 19 121
e 19 125
e 19 129
e 19 130
e 19 131
e 19 132
e 19 133
e 19 135
e 19 137
e 19 139
e 19 143
e 19 148
e 19 158
e 19 165
e 19 171
e 19 172
e 19 173
e 19 174
e 19 176
e 19 183
e 20 21
e 20 22
e 20 23
e 20 25
e 20 26
e 20 27
e 20 28
e 20 29
e 20 30
e 20 31
e 20 32
e 20 33
e 20 34
e 20 35
e 20 36
e 20 38
e 20 40
e 20 43
e 20 46
e 20 47
e 20 48
e 20 49
e 20 52
e 20 53
e 20 55
e 20 60
e 20 61
e 20 62
e 20 65
e 20 67
e 20 71
e 20 73
e 20 75
e 20 80
e 20 81
e 20 82
e 20 86
e 20 88
e 20 92
e 20 100
e 20 102
e 20 103
e 20 104
e 20 105
e 20 110
e 20 114
e 20 116
e 20 121
e 20 134
e 20 136
e 20 138
e 20 145
e 20 159
e 20 160
e 20 162
e 20 164
e 20 165
e 20 166
e 20 177
e 20 179
e 20 181
e 20 188
e 20 192
e 20 195
e 21 22
e 21 23
e 21 24
e 21 25
e 21 26
e 21 27
e 21 28
e 21 30
e 21 31
e 21 32
e 21 33
e 21 34
e 21 35
e 21 37
e 21 38
e 21 40
e 21 44
e 21 45
e 21 47
e 21 51
e 21 52
e 21 54
e 21 57
e 21 58
e 21 62
e 21 64
e 21 68
e 21 72
e 21 77
e 21 80
e 21 82
e 21 83
e 21 92
e 21 93
e 21 99
e 21 105
e 21 108
e 21 114
e 21 117
e 21 118
e 21 119
e 21 121
e 21 150
e 21 152
e 21 156
e 21 161
e 21 162
e 21 163
e 21 180
e 21 183
e 21 187
e 21 188
e 21 189
e 21 191
e 22 23
e 22 24
e 22 25
e 22 27
e 22 28
e 22 29
e 22 30
e 22 32
e 22 36
e 22 39
e 22 41
e 22 42
e 22 43
e 22 44
e 22 46
e 22 48
e 22 50
e 22 51
e 22 52
e 22 53
e 22 55
e 22 56
e 22 58
e 22 59
e 22 60
e 22 62
e 22 63
e 22 64
e 22 65
e 22 68
e 22 69
e 22 70
e 22 73
e 22 74
e 22 75
e 22 76
e 22 78
e 22 80
e 22 81
e 22 82
e 22 86
e 22 87
e 22 93
e 22 97
e 22 99
e 22 100
e 22 101
e 22 102
e 22 103
e 22 105
e 22 112
e 22 117
e 22 119
e 22 125
e 22 127
e 22 128
e 22 138
e 22 142
e 22 144
e 22 151
e 22 159
e 22 160
e 22 165
e 22 167
e 22 168
e 22 171
e 22 176
e 22 180
e 22 183
e 22 190
e 22 196
e 23 24
e 23 25
e 23 26
e 23 27
e 23 28
e 23 29
e 23 30
e 23 31
e 23 33
e 23 34
e 23 36
e 23 37
e 23 40
e 23 43
e 23 45
e 23 48
e 23 51
e 23 52
e 23 60
e 23 61
e 23 62
e 23 63
e 23 65
e 23 66
e 23 67
e 23 68
e 23 74
e 23 84
e 23 85
e 23 93
e 23 97
e 23 98
e 23 100
e 23 110
e 23 120
e 23 121
e 23 130
e 23 134
e 23 138
e 23 144
e 23 151
e 23 154
e 23 156
e 23 158
e 23 166
e 23 167
e 23 169
e 23 179
e 23 182
e 23 195
e 24 25
e 24 27
e 24 29
e 24 31
e 24 33
e 24 36
e 24 40
e 24 41
e 24 44
e 24 45
e 24 48
e 24 49
e 24 50
e 24 51
e 24 54
e 24 55
e 24 64
e 24 66
e 24 67
e 24 73
e 24 75
e 24 76
e 24 79
e 24 92
e 24 94
e 24 99
e 24 100
e 24 104
e 24 109
e 24 117
e 24 118
e 24 122
e 24 126
e 24 129
e 24 130
e 24 132
e 24 135
e 24 138
e 24 140
e 24 141
e 24 142
e 24 144
e 24 156
e 24 158
e 24 163
e 24 164
e 24 167
e 24 169
e 24 170
e 24 172
e 24 186
e 24 193
e 25 26
e 25 27
e 25 29
e 25 30
e 25 31
e 25 32
e 25 33
e 25 35
e 25 37
e 25 38
e 25 41
e 25 42
e 25 45
e 25 46
e 25 47
e 25 48
e 25 49
e 25 53
e 25 57
e 25 58
e 25 60
e 25 69
e 25 70
e 25 71
e 25 74
e 25 77
e 25 82
e 25 87
e 25 90
e 25 92
e 25 94
e 25 98
e 25 99
e 25 100
e 25 101
e 25 102
e 25 108
e 25 110
e 25 121
e 25 135
e 25 136
e 25 140
e 25 142
e 25 145
e 25 149
e 25 153
e 25 154
e 25 156
e 25 157
e 25 160
e 25 166
e 25 168
e 25 172
e 25 177
e 25 178
e 25 185
e 26 27
e 26 28
e 26 29
e 26 32
e 26 34
e 26 37
e 26 40
e 26 41
e 26 43
e 26 49
e 26 50
e 26 55
e 26 57
e 26 60
e 26 61
e 26 66
e 26 68
e 26 75
e 26 78
e 26 84
e 26 85
e 26 86
e 26 99
e 26 107
e 26 110
e 26 116
e 26 119
e 26 128
e 26 133
e 26 139
e 26 148
e 26 149
e 26 150
e 26 157
e 26 158
e 26 167
e 26 168
e 26 172
e 26 184
e 26 185
e 27 28
e 27 29
e 27 30
e 27 32
e 27 35
e 27 38
e 27 39
e 27 40
e 27 43
e 27 45
e 27 47
e 27 49
e 27 50
e 27 51
e 27 55
e 27 57
e 27 71
e 27 81
e 27 84
e 27 85
e 27 95
e 27 96
e 27 123
e 27 126
e 27 130
e 27 131
e 27 144
e 27 148
e 27 150
e 27 157
e 27 158
e 27 165
e 27 166
e 27 169
e 27 174
e 27 181
e 27 182
e 27 193
e 27 197
e 28 29
e 28 30
e 28 31
e 28 32
e 28 33
e 28 35
e 28 36
e 28 38
e 28 40
e 28 42
e 28 44
e 28 47
e 28 51
e 28 52
e 28 53
e 28 54
e 28 57
e 28 60
e 28 61
e 28 66
e 28 67
e 28 68
e 28 72
e 28 74
e 28 76
e 28 78
e 28 79
e 28 80
e 28 81
e 28 83
e 28 84
e 28 87
e 28 89
e 28 90
e 28 92
e 28 94
e 28 96
e 28 97
e 28 117
e 28 119
e 28 122
e 28 123
e 28 127
e 28 128
e 28 130
e 28 134
e 28 140
e 28 143
e 28 149
e 28 153
e 28 157
e 28 188
e 28 193
e 28 194
e 29 31
e 29 35
e 29 37
e 29 38
e 29 39
e 29 40
e 29 41
e 29 42
e 29 44
e 29 45
e 29 46
e 29 53
e 29 54
e 29 55
e 29 57
e 29 59
e 29 64
e 29 67
e 29 70
e 29 72
e 29 75
e 29 76
e 29 79
e 29 81
e 29 83
e 29 85
e 29 86
e 29 97
e 29 103
e 29 123
e 29 133
e 29 147
e 29 150
e 29 152
e 29 154
e 29 159
e 29 170
e 29 176
e 29 177
e 29 183
e 29 185
e 29 186
e 29 191
e 29 194
e 30 31
e 30 32
e 30 34
e 30 35
e 30 38
e 30 42
e 30 47
e 30 49
e 30 53
e 30 56
e 30 59
e 30 66
e 30 67
e 30 70
e 30 71
e 30 74
e 30 76
e 30 77
e 30 79
e 30 80
e 30 82
e 30 84
e 30 87
e 30 88
e 30 91
e 30 94
e 30 95
e 30 96
e 30 101
e 30 104
e 30 105
e 30 107
e 30 112
e 30 115
e 30 117
e 30 120
e 30 121
e 30 124
e 30 132
e 30 140
e 30 141
e 30 146
e 30 148
e 30 149
e 30 154
e 30 158
e 30 161
e 30 166
e 30 179
e 30 188
e 30 190
e 31 33
e 31 34
e 31 36
e 31 37
e 31 38
e 31 39
e 31 41
e 31 42
e 31 44
e 31 46
e 31 48
e 31 49
e 31 53
e 31 54
e 31 55
e 31 60
e 31 62
e 31 64
e 31 69
e 31 71
e 31 80
e 31 81
e 31 84
e 31 89
e 31 99
e 31 101
e 31 102
e 31 103
e 31 106
e 31 108
e 31 109
e 31 113
e 31 114
e 31 115
e 31 117
e 31 122
e 31 132
e 31 134
e 31 137
e 31 147
e 31 152
e 31 166
e 31 168
e 31 184
e 31 188
e 32 40
e 32 43
e 32 52
e 32 56
e 32 59
e 32 62
e 32 63
e 32 64
e 32 65
e 32 70
e 32 72
e 32 74
e 32 78
e 32 83
e 32 95
e 32 102
e 32 109
e 32 120
e 32 124
e 32 131
e 32 137
e 32 148
e 32 154
e 32 161
e 32 165
e 32 170
e 32 174
e 32 175
e 32 177
e 32 196
e 33 34
e 33 35
e 33 36
e 33 37
e 33 38
e 33 39
e 33 41
e 33 42
e 33 44
e 33 45
e 33 46
e 33 48
e 33 57
e 33 60
e 33 61
e 33 66
e 33 68
e 33 74
e 33 76
e 33 82
e 33 85
e 33 86
e 33 87
e 33 91
e 33 93
e 33 95
e 33 96
e 33 101
e 33 106
e 33 109
e 33 116
e 33 117
e 33 122
e 33 125
e 33 127
e 33 128
e 33 138
e 33 142
e 33 161
e 33 170
e 33 173
e 33 181
e 33 196
e 34 35
e 34 39
e 34 41
e 34 42
e 34 44
e 34 45
e 34 46
e 34 47
e 34 48
e 34 49
e 34 51
e 34 52
e 34 56
e 34 61
e 34 63
e 34 66
e 34 73
e 34 75
e 34 80
e 34 87
e 34 90
e 34 91
e 34 92
e 34 96
e 34 107
e 34 115
e 34 119
e 34 127
e 34 136
e 34 148
e 34 162
e 34 163
e 34 194
e 35 38
e 35 39
e 35 40
e 35 42
e 35 46
e 35 53
e 35 56
e 35 63
e 35 68
e 35 81
e 35 82
e 35 86
e 35 89
e 35 91
e 35 93
e 35 95
e 35 97
e 35 98
e 35 106
e 35 110
e 35 111
e 35 112
e 35 115
e 35 117
e 35 122
e 35 125
e 35 133
e 35 142
e 35 151
e 35 153
e 35 157
e 35 181
e 35 184
e 35 187
e 35 189
e 35 190
e 35 191
e 36 37
e 36 38
e 36 44
e 36 46
e 36 48
e 36 49
e 36 53
e 36 54
e 36 58
e 36 60
e 36 61
e 36 68
e 36 69
e 36 73
e 36 76
e 36 78
e 36 79
e 36 83
e 36 84
e 36 98
e 36 114
e 36 120
e 36 126
e 36 134
e 36 138
e 36 153
e 36 155
e 36 156
e 36 157
e 36 158
e 36 175
e 36 187
e 37 43
e 37 45
e 37 50
e 37 52
e 37 54
e 37 56
e 37 57
e 37 58
e 37 64
e 37 74
e 37 82
e 37 84
e 37 90
e 37 92
e 37 93
e 37 105
e 37 113
e 37 114
e 37 122
e 37 126
e 37 141
e 37 145
e 37 156
e 37 168
e 37 173
e 37 179
e 37 182
e 37 187
e 37 194
e 38 39
e 38 40
e 38 46
e 38 47
e 38 49
e 38 50
e 38 51
e 38 53
e 38 54
e 38 56
e 38 62
e 38 63
e 38 64
e 38 67
e 38 68
e 38 73
e 38 74
e 38 76
e 38 77
e 38 86
e 38 88
e 38 99
e 38 104
e 38 105
e 38 108
e 38 113
e 38 118
e 38 119
e 38 125
e 38 130
e 38 137
e 38 138
e 38 140
e 38 141
e 38 146
e 38 148
e 38 152
e 38 153
e 38 154
e 38 163
e 38 168
e 38 183
e 38 184
e 38 186
e 38 193
e 39 48
e 39 51
e 39 59
e 39 62
e 39 63
e 39 69
e 39 74
e 39 76
e 39 81
e 39 99
e 39 101
e 39 103
e 39 107
e 39 114
e 39 133
e 39 139
e 39 142
e 39 144
e 39 155
e 39 174
e 39 175
e 39 180
e 39 189
e 39 194
e 39 196
e 40 41
e 40 42
e 40 45
e 40 46
e 40 47
e 40 50
e 40 55
e 40 58
e 40 61
e 40 62
e 40 64
e 40 66
e 40 67
e 40 69
e 40 78
e 40 80
e 40 95
e 40 99
e 40 101
e 40 102
e 40 103
e 40 104
e 40 106
e 40 110
e 40 112
e 40 114
e 40 118
e 40 120
e 40 123
e 40 126
e 40 130
e 40 140
e 40 143
e 40 144
e 40 145
e 40 162
e 40 175
e 40 182
e 40 187
e 40 191
e 40 192
e 40 194
e 41 43
e 41 46
e 41 63
e 41 64
e 41 66
e 41 67
e 41 71
e 41 79
e 41 86
e 41 87
e 41 90
e 41 98
e 41 99
e 41 103
e 41 107
e 41 115
e 41 125
e 41 127
e 41 129
e 41 133
e 41 138
e 41 139
e 41 145
e 41 146
e 41 149
e 41 152
e 41 161
e 41 174
e 41 176
e 41 178
e 41 186
e 41 196
e 42 46
e 42 54
e 42 58
e 42 61
e 42 63
e 42 67
e 42 69
e 42 73
e 42 82
e 42 85
e 42 92
e 42 103
e 42 106
e 42 113
e 42 116
e 42 125
e 42 133
e 42 136
e 42 137
e 42 142
e 42 143
e 42 145
e 42 158
e 42 160
e 42 166
e 42 171
e 42 172
e 42 185
e 42 192
e 42 193
e 43 44
e 43 50
e 43 56
e 43 57
e 43 59
e 43 61
e 43 65
e 43 68
e 43 69
e 43 71
e 43 72
e 43 75
e 43 78
e 43 83
e 43 84
e 43 89
e 43 90
e 43 94
e 43 95
e 43 104
e 43 109
e 43 114
e 43 117
e 43 118
e 43 120
e 43 121
e 43 133
e 43 136
e 43 137
e 43 141
e 43 155
e 43 171
e 43 187
e 43 196
e 43 197
e 44 47
e 44 52
e 44 53
e 44 60
e 44 66
e 44 69
e 44 79
e 44 80
e 44 82
e 44 89
e 44 93
e 44 104
e 44 106
e 44 109
e 44 118
e 44 122
e 44 127
e 44 159
e 44 167
e 44 173
e 44 178
e 44 179
e 44 189
e 44 192
e 44 196
e 45 48
e 45 52
e 45 53
e 45 59
e 45 61
e 45 65
e 45 75
e 45 76
e 45 77
e 45 79
e 45 93
e 45 98
e 45 101
e 45 110
e 45 113
e 45 129
e 45 132
e 45 136
e 45 139
e 45 144
e 45 145
e 45 151
e 45 160
e 45 170
e 45 171
e 45 174
e 45 187
e 45 188
e 45 189
e 46 47
e 46 50
e 46 51
e 46 56
e 46 65
e 46 81
e 46 89
e 46 94
e 46 95
e 46 108
e 46 120
e 46 131
e 46 132
e 46 133
e 46 135
e 46 140
e 46 156
e 46 157
e 46 169
e 46 172
e 46 179
e 46 182
e 47 49
e 47 52
e 47 57
e 47 59
e 47 61
e 47 69
e 47 70
e 47 71
e 47 85
e 47 89
e 47 90
e 47 102
e 47 107
e 47 124
e 47 126
e 47 127
e 47 131
e 47 151
e 47 156
e 47 178
e 47 183
e 47 192
e 48 49
e 48 50
e 48 52
e 48 56
e 48 58
e 48 67
e 48 70
e 48 75
e 48 81
e 48 96
e 48 101
e 48 123
e 48 126
e 48 128
e 48 129
e 48 139
e 48 140
e 48 143
e 48 147
e 48 157
e 48 167
e 48 170
e 48 183
e 48 187
e 48 195
e 49 51
e 49 53
e 49 55
e 49 56
e 49 59
e 49 63
e 49 66
e 49 70
e 49 74
e 49 77
e 49 85
e 49 89
e 49 101
e 49 102
e 49 104
e 49 108
e 49 109
e 49 111
e 49 114
e 49 124
e 49 130
e 49 134
e 49 135
e 49 137
e 49 139
e 49 142
e 49 144
e 49 146
e 49 150
e 49 151
e 49 155
e 49 164
e 49 167
e 49 168
e 49 170
e 49 174
e 49 176
e 49 177
e 49 181
e 49 185
e 49 186
e 49 187
e 49 192
e 49 195
e 50 54
e 50 59
e 50 65
e 50 73
e 50 75
e 50 77
e 50 78
e 50 81
e 50 86
e 50 101
e 50 112
e 50 118
e 50 123
e 50 124
e 50 137
e 50 149
e 50 151
e 50 160
e 50 161
e 50 163
e 50 189
e 51 59
e 51 66
e 51 77
e 51 82
e 51 85
e 51 87
e 51 90
e 51 93
e 51 98
e 51 103
e 51 106
e 51 108
e 51 125
e 51 136
e 51 139
e 51 144
e 51 148
e 51 149
e 51 150
e 51 155
e 51 161
e 51 189
e 51 197
e 52 54
e 52 56
e 52 58
e 52 64
e 52 66
e 52 69
e 52 75
e 52 83
e 52 86
e 52 96
e 52 98
e 52 101
e 52 108
e 52 112
e 52 119
e 52 122
e 52 123
e 52 125
e 52 128
e 52 135
e 52 136
e 52 152
e 52 162
e 52 166
e 52 175
e 52 179
e 52 182
e 53 65
e 53 77
e 53 79
e 53 87
e 53 91
e 53 96
e 53 97
e 53 113
e 53 137
e 53 142
e 53 149
e 53 170
e 53 179
e 53 180
e 53 187
e 53 196
e 54 55
e 54 58
e 54 59
e 54 69
e 54 72
e 54 77
e 54 78
e 54 84
e 54 86
e 54 89
e 54 94
e 54 109
e 54 113
e 54 115
e 54 117
e 54 118
e 54 120
e 54 155
e 54 160
e 54 164
e 54 177
e 54 178
e 54 191
e 54 194
e 55 57
e 55 58
e 55 68
e 55 71
e 55 73
e 55 80
e 55 84
e 55 87
e 55 97
e 55 102
e 55 103
e 55 114
e 55 130
e 55 136
e 55 143
e 55 150
e 55 156
e 55 167
e 55 168
e 55 175
e 55 178
e 55 183
e 55 184
e 56 67
e 56 70
e 56 80
e 56 88
e 56 90
e 56 91
e 56 95
e 56 114
e 56 120
e 56 129
e 56 146
e 56 156
e 56 171
e 56 191
e 57 59
e 57 60
e 57 67
e 57 73
e 57 74
e 57 75
e 57 78
e 57 83
e 57 90
e 57 92
e 57 96
e 57 100
e 57 109
e 57 110
e 57 112
e 57 136
e 57 173
e 57 189
e 57 190
e 58 61
e 58 64
e 58 68
e 58 82
e 58 88
e 58 91
e 58 95
e 58 100
e 58 114
e 58 121
e 58 149
e 58 155
e 58 158
e 58 174
e 58 191
e 59 70
e 59 71
e 59 77
e 59 83
e 59 87
e 59 88
e 59 97
e 59 111
e 59 114
e 59 122
e 59 125
e 59 141
e 59 164
e 59 166
e 59 175
e 59 190
e 60 62
e 60 64
e 60 69
e 60 73
e 60 80
e 60 82
e 60 97
e 60 123
e 60 127
e 60 134
e 60 148
e 60 165
e 60 180
e 61 72
e 61 75
e 61 76
e 61 97
e 61 100
e 61 110
e 61 119
e 61 138
e 61 142
e 61 156
e 61 169
e 61 184
e 61 192
e 62 63
e 62 69
e 62 70
e 62 76
e 62 81
e 62 91
e 62 94
e 62 107
e 62 127
e 62 131
e 62 156
e 62 159
e 62 161
e 63 65
e 63 72
e 63 80
e 63 82
e 63 83
e 63 91
e 63 95
e 63 104
e 63 106
e 63 124
e 63 127
e 63 137
e 63 143
e 63 147
e 63 148
e 63 175
e 63 178
e 63 182
e 64 66
e 64 70
e 64 101
e 64 116
e 64 131
e 64 145
e 64 149
e 64 159
e 64 162
e 64 184
e 64 190
e 65 71
e 65 72
e 65 79
e 65 113
e 65 116
e 65 177
e 65 192
e 65 196
e 66 72
e 66 74
e 66 81
e 66 93
e 66 94
e 66 105
e 66 108
e 66 142
e 66 143
e 66 146
e 66 152
e 66 153
e 66 166
e 66 171
e 66 190
e 67 71
e 67 73
e 67 76
e 67 78
e 67 89
e 67 93
e 67 95
e 67 102
e 67 106
e 67 112
e 67 131
e 67 133
e 67 138
e 67 161
e 67 177
e 67 187
e 67 189
e 67 194
e 67 196
e 68 69
e 68 88
e 68 96
e 68 115
e 68 123
e 68 134
e 68 158
e 68 190
e 68 192
e 69 74
e 69 77
e 69 79
e 69 85
e 69 92
e 69 93
e 69 94
e 69 95
e 69 103
e 69 111
e 69 112
e 69 137
e 69 161
e 69 164
e 69 168
e 69 186
e 69 188
e 69 193
e 70 87
e 70 89
e 70 92
e 70 96
e 70 97
e 70 105
e 70 114
e 70 121
e 70 122
e 70 130
e 70 134
e 70 139
e 70 150
e 70 152
e 70 197
e 71 75
e 71 85
e 71 93
e 71 104
e 71 112
e 71 116
e 71 118
e 71 125
e 71 129
e 71 135
e 71 147
e 71 155
e 71 166
e 71 173
e 71 176
e 71 185
e 72 73
e 72 76
e 72 77
e 72 93
e 72 95
e 72 98
e 72 100
e 72 107
e 72 113
e 72 116
e 72 131
e 72 164
e 72 169
e 72 185
e 72 191
e 73 79
e 73 117
e 73 122
e 73 124
e 73 143
e 73 144
e 73 162
e 73 173
e 73 175
e 73 190
e 74 116
e 74 122
e 74 129
e 74 155
e 74 163
e 74 178
e 75 83
e 75 89
e 75 90
e 75 94
e 75 100
e 75 102
e 75 113
e 75 119
e 75 122
e 75 147
e 75 154
e 75 165
e 75 181
e 75 197
e 76 87
e 76 105
e 76 106
e 76 124
e 76 133
e 76 147
e 76 149
e 76 155
e 76 157
e 76 167
e 76 184
e 77 86
e 77 90
e 77 94
e 77 98
e 77 102
e 77 113
e 77 141
e 77 151
e 77 159
e 77 185
e 77 197
e 78 87
e 78 91
e 78 103
e 78 120
e 78 125
e 78 131
e 78 140
e 78 167
e 79 81
e 79 92
e 79 96
e 79 101
e 79 126
e 79 130
e 79 144
e 79 145
e 79 157
e 79 163
e 79 169
e 79 175
e 79 180
e 79 192
e 79 193
e 79 194
e 80 88
e 80 107
e 80 110
e 80 121
e 80 124
e 80 126
e 80 129
e 80 135
e 80 152
e 80 154
e 80 160
e 80 173
e 80 190
e 80 194
e 81 83
e 81 85
e 81 104
e 81 115
e 81 124
e 81 131
e 81 144
e 81 165
e 81 171
e 81 188
e 81 193
e 82 91
e 82 111
e 82 119
e 82 130
e 82 135
e 82 139
e 82 144
e 82 162
e 82 171
e 82 172
e 82 180
e 83 91
e 83 97
e 83 98
e 83 106
e 83 121
e 83 141
e 83 149
e 83 157
e 83 176
e 83 178
e 84 85
e 84 90
e 84 97
e 84 108
e 84 118
e 84 122
e 84 126
e 84 131
e 84 142
e 84 154
e 84 187
e 85 99
e 85 115
e 85 146
e 85 186
e 85 193
e 86 138
e 86 163
e 86 175
e 86 182
e 86 191
e 87 102
e 87 111
e 87 124
e 87 148
e 87 150
e 87 180
e 87 182
e 88 126
e 88 128
e 88 165
e 89 91
e 89 106
e 89 110
e 89 124
e 89 125
e 89 128
e 89 129
e 89 135
e 89 136
e 89 172
e 89 174
e 89 177
e 89 195
e 90 92
e 90 95
e 90 99
e 90 110
e 90 111
e 90 125
e 90 140
e 90 164
e 90 195
e 90 197
e 91 98
e 91 134
e 91 151
e 91 154
e 91 178
e 91 180
e 91 183
e 91 186
e 92 121
e 92 124
e 92 139
e 92 141
e 92 148
e 92 160
e 92 165
e 92 183
e 92 186
e 93 96
e 93 102
e 93 107
e 93 115
e 93 117
e 93 120
e 93 133
e 93 152
e 93 154
e 93 172
e 93 175
e 93 178
e 93 186
e 93 189
e 94 97
e 94 98
e 94 108
e 94 111
e 94 120
e 94 128
e 94 138
e 94 155
e 94 160
e 94 163
e 94 172
e 94 181
e 95 100
e 95 104
e 95 109
e 95 110
e 95 115
e 95 123
e 95 134
e 95 135
e 95 151
e 95 157
e 95 172
e 95 187
e 96 97
e 96 103
e 96 127
e 96 130
e 96 132
e 96 145
e 96 155
e 97 132
e 97 144
e 97 166
e 98 99
e 98 100
e 98 109
e 98 127
e 98 158
e 98 164
e 98 169
e 98 193
e 99 121
e 99 188
e 100 103
e 100 165
e 100 169
e 100 180
e 101 104
e 101 105
e 101 112
e 101 125
e 101 129
e 101 132
e 101 135
e 101 145
e 101 146
e 101 149
e 101 154
e 101 160
e 101 161
e 101 163
e 101 166
e 101 169
e 101 179
e 101 185
e 101 190
e 101 194
e 101 195
e 101 196
e 102 153
e 102 163
e 102 173
e 102 193
e 102 197
e 103 105
e 103 131
e 103 138
e 103 151
e 103 154
e 103 173
e 103 177
e 104 106
e 104 118
e 104 119
e 104 132
e 104 139
e 104 162
e 105 112
e 105 126
e 105 127
e 105 147
e 105 150
e 105 153
e 105 162
e 105 165
e 105 176
e 105 197
e 106 107
e 106 123
e 106 133
e 106 147
e 106 150
e 106 155
e 106 158
e 107 119
e 107 136
e 107 156
e 107 180
e 107 182
e 107 194
e 107 195
e 108 128
e 108 133
e 108 154
e 108 188
e 109 115
e 109 125
e 109 138
e 109 146
e 109 147
e 109 173
e 109 183
e 109 197
e 110 159
e 110 168
e 110 194
e 111 113
e 111 114
e 111 115
e 111 126
e 111 140
e 111 146
e 111 152
e 111 158
e 111 167
e 111 168
e 111 174
e 111 189
e 111 192
e 111 196
e 112 116
e 112 118
e 112 119
e 112 121
e 112 124
e 112 128
e 112 155
e 112 162
e 113 118
e 113 152
e 113 156
e 113 159
e 113 160
e 113 175
e 113 180
e 114 116
e 114 128
e 114 167
e 115 126
e 115 128
e 115 132
e 115 174
e 115 176
e 115 179
e 116 119
e 116 123
e 116 167
e 116 184
e 117 120
e 117 128
e 117 129
e 117 138
e 117 154
e 117 157
e 117 174
e 117 179
e 117 183
e 117 190
e 117 191
e 118 152
e 118 169
e 118 170
e 118 172
e 118 181
e 118 190
e 119 134
e 119 141
e 119 143
e 119 147
e 119 155
e 119 175
e 119 186
e 120 136
e 121 124
e 121 132
e 121 136
e 121 137
e 121 146
e 122 150
e 122 164
e 122 169
e 122 181
e 122 182
e 123 141
e 123 144
e 123 145
e 123 174
e 123 181
e 123 191
e 124 135
e 124 139
e 124 150
e 124 189
e 126 133
e 126 137
e 126 149
e 126 151
e 126 153
e 126 159
e 126 160
e 126 186
e 126 191
e 127 172
e 127 174
e 127 193
e 127 194
e 128 132
e 128 134
e 128 148
e 128 151
e 128 157
e 128 159
e 128 161
e 128 177
e 129 134
e 129 141
e 129 145
e 129 185
e 129 189
e 130 131
e 130 164
e 130 169
e 130 172
e 130 184
e 131 144
e 131 168
e 132 148
e 132 153
e 133 158
e 133 186
e 134 137
e 134 141
e 134 146
e 134 150
e 134 159
e 134 168
e 134 180
e 135 162
e 135 196
e 136 150
e 136 159
e 136 164
e 136 173
e 136 181
e 136 186
e 137 147
e 137 163
e 138 172
e 139 152
e 139 163
e 139 195
e 140 143
e 140 154
e 140 162
e 140 193
e 141 153
e 141 158
e 141 160
e 141 193
e 142 181
e 143 165
e 143 173
e 143 176
e 143 187
e 144 160
e 144 171
e 144 185
e 145 146
e 145 148
e 145 176
e 145 195
e 146 147
e 146 152
e 146 159
e 146 179
e 146 185
e 148 151
e 148 182
e 149 153
e 149 164
e 149 165
e 149 181
e 149 186
e 149 195
e 150 170
e 150 173
e 150 185
e 151 159
e 151 169
e 151 170
e 151 171
e 151 179
e 151 187
e 151 188
e 151 195
e 152 179
e 153 159
e 154 166
e 154 169
e 155 178
e 155 197
e 156 181
e 157 180
e 157 184
e 158 195
e 159 163
e 159 168
e 160 178
e 161 192
e 162 180
e 163 171
e 163 187
e 164 168
e 165 170
e 166 176
e 167 182
e 167 190
e 168 182
e 168 191
e 168 195
e 171 196
e 172 173
e 173 182
e 173 190
e 174 176
e 174 183
e 174 189
e 175 197
e 176 177
e 176 192
e 178 196
e 180 189
e 182 197
e 186 191
e 187 192
e 187 197
e 189 194
e 193 195
